c colouring generated by benchmark framework
p edge 96 1368
v 1 10
v 2 11
v 3 12
v 4 2
v 5 4
v 6 5
v 7 7
v 8 6
v 9 8
v 10 0
v 11 1
v 12 3
v 13 5
v 14 9
v 15 3
v 16 0
v 17 7
v 18 1
v 19 2
v 20 4
v 21 12
v 22 6
v 23 11
v 24 8
v 25 6
v 26 4
v 27 5
v 28 1
v 29 2
v 30 12
v 31 0
v 32 3
v 33 11
v 34 10
v 35 9
v 36 7
v 37 12
v 38 2
v 39 9
v 40 6
v 41 8
v 42 11
v 43 1
v 44 7
v 45 0
v 46 3
v 47 4
v 48 5
v 49 7
v 50 6
v 51 0
v 52 11
v 53 3
v 54 4
v 55 10
v 56 9
v 57 2
v 58 8
v 59 12
v 60 1
v 61 2
v 62 8
v 63 4
v 64 12
v 65 6
v 66 0
v 67 5
v 68 1
v 69 3
v 70 9
v 71 7
v 72 10
v 73 9
v 74 1
v 75 2
v 76 7
v 77 5
v 78 8
v 79 4
v 80 0
v 81 6
v 82 11
v 83 3
v 84 12
v 85 3
v 86 10
v 87 11
v 88 4
v 89 1
v 90 7
v 91 12
v 92 8
v 93 9
v 94 5
v 95 0
v 96 6
